RLW07
Position Depot: Random
Horizon for Depot: Large
Position of customers: Random
Distribution of the demand: Large
Width of time windows: Wide
Distribution of the service: Large

VEHICLE 
NUMBER 	 CAPACITY 
 5 	 	 1070 
 
CUSTOMER
CUST NO. 	 XCOORD.  	 YCOORD. 	 DEMAND 	 READY TIME 	 DUE DATE 	 SERVICE TIME 
 0 	 	 332 	 	 640 	 	 0 	 	 0 	 	 4607 	 	 0 
  1 	 	 678 	 	 185 	 	 29 	 	 2284 	 	 2525 	 	 121 
  2 	 	 466 	 	 380 	 	 52 	 	 3488 	 	 3929 	 	 185 
  3 	 	 679 	 	 866 	 	 14 	 	 3759 	 	 4247 	 	 110 
  4 	 	 955 	 	 686 	 	 5 	 	 478 	 	 687 	 	 135 
  5 	 	 37 	 	 275 	 	 40 	 	 1206 	 	 1681 	 	 161 
  6 	 	 632 	 	 734 	 	 88 	 	 2659 	 	 2867 	 	 158 
  7 	 	 894 	 	 350 	 	 31 	 	 1665 	 	 2042 	 	 194 
  8 	 	 865 	 	 942 	 	 92 	 	 462 	 	 673 	 	 156 
  9 	 	 524 	 	 202 	 	 51 	 	 1108 	 	 1399 	 	 129 
  10 	 	 83 	 	 404 	 	 6 	 	 1245 	 	 1608 	 	 100 
  11 	 	 465 	 	 551 	 	 80 	 	 4171 	 	 4454 	 	 104 
  12 	 	 857 	 	 432 	 	 29 	 	 1874 	 	 2339 	 	 156 
  13 	 	 193 	 	 858 	 	 6 	 	 2888 	 	 3298 	 	 151 
  14 	 	 523 	 	 436 	 	 35 	 	 3440 	 	 3812 	 	 172 
  15 	 	 947 	 	 24 	 	 11 	 	 3663 	 	 4077 	 	 120 
  16 	 	 918 	 	 440 	 	 21 	 	 4147 	 	 4607 	 	 199 
  17 	 	 519 	 	 746 	 	 65 	 	 1240 	 	 1576 	 	 152 
  18 	 	 766 	 	 492 	 	 37 	 	 2628 	 	 3061 	 	 150 
  19 	 	 564 	 	 385 	 	 37 	 	 1775 	 	 2158 	 	 169 
  20 	 	 557 	 	 831 	 	 92 	 	 4192 	 	 4507 	 	 133 
  21 	 	 20 	 	 872 	 	 85 	 	 426 	 	 760 	 	 190 
  22 	 	 897 	 	 399 	 	 21 	 	 1997 	 	 2326 	 	 162 
  23 	 	 16 	 	 163 	 	 62 	 	 749 	 	 1061 	 	 119 
  24 	 	 115 	 	 393 	 	 8 	 	 1296 	 	 1530 	 	 112 
  25 	 	 479 	 	 562 	 	 94 	 	 3730 	 	 3942 	 	 107 
  26 	 	 277 	 	 52 	 	 68 	 	 3716 	 	 4022 	 	 145 
  27 	 	 609 	 	 448 	 	 15 	 	 2593 	 	 2956 	 	 148 
  28 	 	 958 	 	 669 	 	 50 	 	 2255 	 	 2497 	 	 129 
  29 	 	 837 	 	 743 	 	 57 	 	 4229 	 	 4607 	 	 154 
  30 	 	 441 	 	 726 	 	 94 	 	 3320 	 	 3820 	 	 134 
  31 	 	 191 	 	 154 	 	 7 	 	 2516 	 	 2896 	 	 148 
  32 	 	 68 	 	 646 	 	 76 	 	 2357 	 	 2851 	 	 122 
  33 	 	 148 	 	 782 	 	 93 	 	 702 	 	 1174 	 	 126 
  34 	 	 488 	 	 969 	 	 91 	 	 1717 	 	 2100 	 	 178 
  35 	 	 540 	 	 933 	 	 81 	 	 1171 	 	 1475 	 	 138 
  36 	 	 175 	 	 869 	 	 96 	 	 930 	 	 1334 	 	 154 
  37 	 	 500 	 	 359 	 	 91 	 	 43 	 	 515 	 	 109 
  38 	 	 24 	 	 376 	 	 32 	 	 1120 	 	 1429 	 	 150 
  39 	 	 454 	 	 522 	 	 76 	 	 2025 	 	 2443 	 	 176 
  40 	 	 879 	 	 346 	 	 62 	 	 2669 	 	 2910 	 	 175 
  41 	 	 625 	 	 56 	 	 100 	 	 898 	 	 1382 	 	 195 
  42 	 	 481 	 	 970 	 	 23 	 	 642 	 	 846 	 	 108 
  43 	 	 24 	 	 187 	 	 36 	 	 1373 	 	 1808 	 	 151 
  44 	 	 730 	 	 554 	 	 66 	 	 2054 	 	 2389 	 	 171 
  45 	 	 393 	 	 889 	 	 14 	 	 3019 	 	 3456 	 	 130 
  46 	 	 72 	 	 744 	 	 94 	 	 2427 	 	 2695 	 	 187 
  47 	 	 618 	 	 27 	 	 81 	 	 2987 	 	 3215 	 	 137 
  48 	 	 353 	 	 789 	 	 85 	 	 -74 	 	 350 	 	 140 
  49 	 	 598 	 	 10 	 	 98 	 	 4182 	 	 4543 	 	 193 
  50 	 	 805 	 	 401 	 	 89 	 	 170 	 	 668 	 	 187 
  51 	 	 457 	 	 874 	 	 88 	 	 589 	 	 1005 	 	 151 
  52 	 	 753 	 	 126 	 	 73 	 	 525 	 	 730 	 	 199 
  53 	 	 570 	 	 609 	 	 53 	 	 2707 	 	 2996 	 	 151 
  54 	 	 752 	 	 41 	 	 19 	 	 2106 	 	 2570 	 	 189 
  55 	 	 627 	 	 420 	 	 83 	 	 1115 	 	 1606 	 	 160 
  56 	 	 740 	 	 300 	 	 75 	 	 1990 	 	 2207 	 	 199 
  57 	 	 903 	 	 400 	 	 70 	 	 3238 	 	 3512 	 	 141 
  58 	 	 174 	 	 464 	 	 51 	 	 4343 	 	 4607 	 	 164 
  59 	 	 916 	 	 657 	 	 11 	 	 3051 	 	 3384 	 	 150 
  60 	 	 500 	 	 746 	 	 5 	 	 2240 	 	 2521 	 	 181 
  61 	 	 958 	 	 275 	 	 50 	 	 2113 	 	 2376 	 	 132 
  62 	 	 988 	 	 9 	 	 16 	 	 655 	 	 1094 	 	 119 
  63 	 	 477 	 	 246 	 	 31 	 	 182 	 	 497 	 	 110 
  64 	 	 110 	 	 834 	 	 13 	 	 58 	 	 554 	 	 184 
  65 	 	 116 	 	 44 	 	 33 	 	 3261 	 	 3536 	 	 144 
  66 	 	 116 	 	 51 	 	 50 	 	 1689 	 	 1970 	 	 168 
  67 	 	 587 	 	 501 	 	 22 	 	 2683 	 	 3086 	 	 165 
  68 	 	 810 	 	 816 	 	 73 	 	 1220 	 	 1586 	 	 167 
  69 	 	 876 	 	 72 	 	 81 	 	 658 	 	 865 	 	 173 
  70 	 	 305 	 	 101 	 	 58 	 	 613 	 	 813 	 	 184 
  71 	 	 48 	 	 759 	 	 36 	 	 4251 	 	 4607 	 	 175 
  72 	 	 954 	 	 637 	 	 98 	 	 1867 	 	 2301 	 	 149 
  73 	 	 120 	 	 831 	 	 83 	 	 1652 	 	 2008 	 	 182 
  74 	 	 681 	 	 797 	 	 17 	 	 3947 	 	 4403 	 	 195 
  75 	 	 961 	 	 24 	 	 47 	 	 3532 	 	 3780 	 	 155 
  76 	 	 831 	 	 688 	 	 20 	 	 2122 	 	 2380 	 	 147 
  77 	 	 258 	 	 777 	 	 28 	 	 2555 	 	 2827 	 	 171 
  78 	 	 228 	 	 962 	 	 79 	 	 55 	 	 372 	 	 190 
  79 	 	 860 	 	 494 	 	 46 	 	 837 	 	 1246 	 	 185 
  80 	 	 351 	 	 437 	 	 80 	 	 3475 	 	 3732 	 	 132 
  81 	 	 54 	 	 540 	 	 38 	 	 4038 	 	 4401 	 	 125 
  82 	 	 1000 	 	 213 	 	 30 	 	 1786 	 	 2178 	 	 144 
  83 	 	 262 	 	 892 	 	 1 	 	 3801 	 	 4260 	 	 117 
  84 	 	 437 	 	 783 	 	 62 	 	 508 	 	 972 	 	 135 
  85 	 	 102 	 	 224 	 	 14 	 	 3286 	 	 3693 	 	 118 
  86 	 	 117 	 	 682 	 	 57 	 	 4088 	 	 4398 	 	 120 
  87 	 	 220 	 	 279 	 	 47 	 	 2485 	 	 2862 	 	 195 
  88 	 	 257 	 	 580 	 	 97 	 	 1115 	 	 1330 	 	 128 
  89 	 	 263 	 	 945 	 	 62 	 	 4286 	 	 4494 	 	 143 
  90 	 	 17 	 	 931 	 	 23 	 	 1479 	 	 1811 	 	 182 
  91 	 	 930 	 	 235 	 	 10 	 	 3296 	 	 3684 	 	 188 
  92 	 	 379 	 	 770 	 	 99 	 	 1425 	 	 1679 	 	 100 
  93 	 	 955 	 	 401 	 	 44 	 	 2496 	 	 2906 	 	 143 
  94 	 	 602 	 	 808 	 	 89 	 	 1905 	 	 2311 	 	 196 
  95 	 	 629 	 	 282 	 	 99 	 	 2774 	 	 3012 	 	 155 
  96 	 	 228 	 	 627 	 	 61 	 	 2663 	 	 3007 	 	 191 
  97 	 	 29 	 	 108 	 	 77 	 	 4236 	 	 4463 	 	 121 
  98 	 	 637 	 	 772 	 	 29 	 	 4174 	 	 4598 	 	 137 
  99 	 	 433 	 	 408 	 	 80 	 	 44 	 	 278 	 	 150 
  100 	 	 156 	 	 748 	 	 76 	 	 1480 	 	 1922 	 	 185 
 